32      1       
17      
0       0       3       2       3       4       
8       0       3       8       9       12      
4       0       3       5       6       7       
7       8       1       28      
4       10      1       14      
9       0       1       29      
5       5       3       10      13      23      
8       0       1       16      
4       0       3       14      15      18      
5       4       1       11      
6       7       1       24      
6       2       3       19      27      29      
1       0       1       22      
9       0       2       17      20      
9       6       1       19      
7       0       1       27      
6       1       3       21      24      28      
5       1       1       30      
9       7       1       25      
10      0       1       27      
3       0       1       22      
7       0       1       26      
7       6       1       26      
6       9       2       26      31      
4       2       1       30      
1       1       1       29      
3       0       1       28      
4       0       2       30      31      
10      0       1       32      
5       0       1       32      
3       2       1       32      
0       0       0       